(set-logic QF_S)
(declare-fun var0 () String)
(assert (str.in.re var0 (re.++ (re.* (re.* (str.to.re "000"))) (re.++ (re.+ (re.union (str.to.re "11") (str.to.re "222"))) (re.++ (re.* (re.union (str.to.re "3") (str.to.re "444"))) (re.++ (re.union (re.union (str.to.re "55") (str.to.re "666")) (re.+ (str.to.re "77"))) (re.++ (re.union (re.union (str.to.re "888") (str.to.re "99")) (re.* (str.to.re "a"))) (re.++ (re.union (re.* (str.to.re "b")) (re.* (str.to.re "cc"))) (re.++ (re.+ (re.* (str.to.re "ddd"))) (re.++ (re.+ (re.* (str.to.re "ee"))) (re.++ (re.+ (re.* (str.to.re "ff"))) (re.++ (re.+ (re.* (str.to.re "gg"))) (re.++ (re.union (re.union (str.to.re "h") (str.to.re "ii")) (re.union (str.to.re "jjj") (str.to.re "kk"))) (re.++ (re.+ (re.+ (str.to.re "ll"))) (re.++ (re.union (re.union (str.to.re "m") (str.to.re "n")) (re.+ (str.to.re "oo"))) (re.++ (re.* (re.* (str.to.re "ppp"))) (re.++ (re.union (re.* (str.to.re "qqq")) (re.+ (str.to.re "rr"))) (re.++ (re.+ (re.union (str.to.re "ss") (str.to.re "ttt"))) (re.++ (re.union (re.union (str.to.re "uuu") (str.to.re "vvv")) (re.* (str.to.re "ww"))) (re.++ (re.+ (re.* (str.to.re "x"))) (re.++ (re.+ (re.union (str.to.re "yy") (str.to.re "zzz"))) (re.++ (re.+ (re.union (str.to.re "AA") (str.to.re "BB"))) (re.++ (re.+ (re.+ (str.to.re "CC"))) (re.++ (re.union (re.+ (str.to.re "D")) (re.+ (str.to.re "E"))) (re.++ (re.* (re.+ (str.to.re "FF"))) (re.++ (re.* (re.* (str.to.re "GGG"))) (re.++ (re.union (re.* (str.to.re "HHH")) (re.union (str.to.re "II") (str.to.re "JJJ"))) (re.++ (re.* (re.+ (str.to.re "K"))) (re.++ (re.union (re.union (str.to.re "L") (str.to.re "M")) (re.union (str.to.re "NNN") (str.to.re "OOO"))) (re.++ (re.union (re.+ (str.to.re "P")) (re.+ (str.to.re "QQ"))) (re.++ (re.* (re.+ (str.to.re "RRR"))) (re.++ (re.* (re.+ (str.to.re "SSS"))) (re.* (re.+ (str.to.re "T")))))))))))))))))))))))))))))))))))
(assert (not (str.in.re var0 (re.++ (re.+ (re.union (str.to.re "0") (str.to.re "1"))) (re.++ (re.* (re.union (str.to.re "2") (str.to.re "333"))) (re.++ (re.* (re.* (str.to.re "4"))) (re.++ (re.union (re.+ (str.to.re "55")) (re.* (str.to.re "666"))) (re.++ (re.+ (re.* (str.to.re "7"))) (re.++ (re.+ (re.union (str.to.re "8") (str.to.re "9"))) (re.++ (re.* (re.union (str.to.re "aaa") (str.to.re "bbb"))) (re.++ (re.+ (re.* (str.to.re "ccc"))) (re.++ (re.union (re.* (str.to.re "d")) (re.union (str.to.re "ee") (str.to.re "f"))) (re.++ (re.union (re.union (str.to.re "ggg") (str.to.re "h")) (re.* (str.to.re "iii"))) (re.++ (re.+ (re.union (str.to.re "jj") (str.to.re "kkk"))) (re.++ (re.* (re.* (str.to.re "ll"))) (re.++ (re.+ (re.* (str.to.re "mm"))) (re.++ (re.union (re.union (str.to.re "n") (str.to.re "o")) (re.+ (str.to.re "ppp"))) (re.++ (re.+ (re.union (str.to.re "qq") (str.to.re "r"))) (re.++ (re.union (re.+ (str.to.re "s")) (re.union (str.to.re "t") (str.to.re "u"))) (re.++ (re.union (re.union (str.to.re "vvv") (str.to.re "ww")) (re.* (str.to.re "xx"))) (re.++ (re.union (re.* (str.to.re "yyy")) (re.union (str.to.re "zz") (str.to.re "AA"))) (re.++ (re.* (re.+ (str.to.re "BBB"))) (re.++ (re.* (re.union (str.to.re "CC") (str.to.re "DD"))) (re.++ (re.* (re.union (str.to.re "E") (str.to.re "F"))) (re.++ (re.* (re.* (str.to.re "GGG"))) (re.++ (re.union (re.union (str.to.re "HHH") (str.to.re "III")) (re.union (str.to.re "J") (str.to.re "K"))) (re.++ (re.union (re.union (str.to.re "LLL") (str.to.re "M")) (re.union (str.to.re "N") (str.to.re "OOO"))) (re.++ (re.union (re.union (str.to.re "PPP") (str.to.re "Q")) (re.union (str.to.re "RRR") (str.to.re "S"))) (re.++ (re.+ (re.union (str.to.re "TTT") (str.to.re "U"))) (re.++ (re.+ (re.* (str.to.re "VV"))) (re.++ (re.+ (re.+ (str.to.re "W"))) (re.++ (re.union (re.+ (str.to.re "XX")) (re.* (str.to.re "YYY"))) (re.++ (re.+ (re.union (str.to.re "ZZ") (str.to.re "!!!"))) (re.union (re.+ (str.to.re """""")) (re.* (str.to.re "#"))))))))))))))))))))))))))))))))))))
(check-sat)